; wff1 is the DNF
; wff2 is the CNF

(declare-const p1 Bool)
(declare-const p2 Bool)
(declare-const p3 Bool)
(declare-const p4 Bool)

(define-fun wff1 ((p1 Bool) (p2 Bool) (p3 Bool) (p4 Bool)) Bool
	(or  (and p1 p2 p3 p4)
		 (and (not p1) (not p2) (not p3) p4)
		 (and (not p1) (not p2) p3 (not p4))
		 (and (not p1) p2 (not p3) (not p4))
		 (and p1 (not p2) (not p3) (not p4)
		 (and p1 p2 (not p3) (not p4))
		 (and p1 (not p2) (not p3) p4)
		 (and (not p1) (not p2) p3 p4)
		 (and (not p1) p2 p3 (not p4))
		 (and p1 (not p2) p3 (not p4))
		 (and (not p1) p2 (not p3) p4)
		 (and (not p1) p2 p3 p4)
		 (and p1 p2 p3 (not p4))
		 (and p1 (not p2) p3 p4)
		 (and p1 p2 (not p3) p4)
		 (and (not p1) (not p2) (not p3) (not p4))
	)
)

(define-fun wff2 ((p1 Bool) (p2 Bool) (p3 Bool) (p4 Bool)) Bool
	(and (or p1 p2 p3 p4)
		 (or (not p1) (not p2) (not p3) p4)
		 (or (not p1) (not p2) p3 (not p4))
		 (or (not p1) p2 (not p3) (not p4))
		 (or p1 (not p2) (not p3) (not p4))
		 (or p1 p2 (not p3) (not p4))
		 (or p1 (not p2) (not p3) p4)
		 (or (not p1) (not p2) p3 p4)
		 (or (not p1) p2 p3 (not p4))
		 (or p1 (not p2) p3 (not p4))
		 (or (not p1) p2 (not p3) p4)
		 (or (not p1) p2 p3 p4)
		 (or p1 p2 p3 (not p4))
		 (or p1 (not p2) p3 p4)
		 (or p1 p2 (not p3) p4)
		 (or (not p1) (not p2) (not p3) (not p4))
	)
)

(define-fun wff3 ((p1 Bool) (p2 Bool) (p3 Bool) (p4 Bool)) Bool
	(not (not (and (or p1 p2 p3 p4)
		 	  (or (not p1) (not p2) (not p3) p4)
		 	  (or (not p1) (not p2) p3 (not p4))
		 	  (or (not p1) p2 (not p3) (not p4))
		 	  (or p1 (not p2) (not p3) (not p4))
		 	  (or p1 p2 (not p3) (not p4))
		 	  (or p1 (not p2) (not p3) p4)
		 	  (or (not p1) (not p2) p3 p4)
		 	  (or (not p1) p2 p3 (not p4))
		 	  (or p1 (not p2) p3 (not p4))
		 	  (or (not p1) p2 (not p3) p4)
		 	  (or (not p1) p2 p3 p4)
		 	  (or p1 p2 p3 (not p4))
		 	  (or p1 (not p2) p3 p4)
		 	  (or p1 p2 (not p3) p4)
		 	  (or (not p1) (not p2) (not p3) (not p4))
		  	  )
		 )	 
	)
)



(assert (= (wff1 p1 p2 p3 p4) (wff2 p1 p2 p3 p4) (wff3 p1 p2 p3 p4)))
(check-sat)